NAME : sim71.86410.tour
COMMENT : Length = 86410
COMMENT : Found by LKH [Keld Helsgaun] Sat Sep 15 17:57:54 2018
TYPE : TOUR
DIMENSION : 71
TOUR_SECTION
1
32
35
57
58
45
9
66
4
12
2
16
29
13
27
70
54
43
38
17
8
20
51
15
23
37
47
26
18
46
55
31
19
21
49
22
60
63
61
53
69
33
34
7
24
52
28
68
40
64
65
48
62
25
14
41
30
71
5
39
36
50
59
56
3
10
6
67
44
11
42
-1
EOF
